(set-info :origin "SVCOMP13 benchmarks generated by Arie Gurfinkel")
(set-info :status sat)
(set-logic HORN)
(declare-fun cp-rel-entry () Bool)
(declare-fun cp-rel-bb1.i.i (Real Real Real Real) Bool)
(declare-fun cp-rel-bb2.i.i45.i.i () Bool)
(assert |cp-rel-entry|)
(assert (forall ((?A Real) (?B Real) (?C Real) (?D Real) (?E Bool) )(let (($x858249 (and |cp-rel-entry| (<= ?D 0.0) (>= ?C 1.0) (<= ?C 1.0) (>= ?B 1.0) (<= ?B 1.0) (>= ?A 0.0) (<= ?A 0.0) (= ?E true) (>= ?D 0.0))))
(=> $x858249 (|cp-rel-bb1.i.i| ?A ?B ?C ?D))))
)
(assert (forall ((?A Real) (?B Real) (?C Real) (?D Real) (?E Real) (?F Real) (?G Real) (?H Real) (?I Bool) (?J Bool) (?K Bool) (?L Bool) (?M Bool) (?N Bool) (?O Real) (?P Real) (?Q Bool) (?R Bool) (?S Bool) (?T Bool) (?U Bool) (?V Bool) (?W Real) (?X Real) (?Y Bool) (?Z Bool) (?A1 Bool) (?B1 Bool) (?C1 Bool) (?D1 Bool) (?E1 Bool) (?F1 Bool) (?G1 Bool) (?H1 Bool) (?I1 Bool) (?J1 Bool) (?K1 Bool) (?L1 Real) (?M1 Real) (?N1 Bool) (?O1 Bool) (?P1 Bool) (?Q1 Bool) (?R1 Bool) (?S1 Bool) (?T1 Bool) (?U1 Bool) (?V1 Bool) (?W1 Bool) (?X1 Bool) (?Y1 Bool) (?Z1 Bool) (?A2 Bool) (?B2 Bool) (?C2 Bool) (?D2 Real) (?E2 Real) (?F2 Real) (?G2 Real) (?H2 Real) (?I2 Bool) (?J2 Bool) (?K2 Bool) (?L2 Bool) (?M2 Bool) (?N2 Bool) (?O2 Real) (?P2 Bool) (?Q2 Real) (?R2 Real) (?S2 Bool) (?T2 Real) (?U2 Real) (?V2 Bool) (?W2 Real) (?X2 Bool) (?Y2 Bool) (?Z2 Bool) (?A3 Bool) (?B3 Bool) (?C3 Bool) (?D3 Bool) (?E3 Bool) )(let (($x490880 (|cp-rel-bb1.i.i| ?E ?F ?G ?H)))
(let (($x313861 (= ?N2 (and ?E3 ?D3))))
(let (($x101848 (or (not ?I) (and ?J ?K (not ?L)))))
(let (($x602568 (or (not ?I) ?K)))
(let (($x352946 (not ?M)))
(let (($x295307 (or $x352946 (and ?I ?N (<= ?O ?P) (>= ?O ?P)) (and ?J ?Q ?L (<= ?O ?B) (>= ?O ?B)))))
(let (($x13901 (or $x352946 (and ?N (not ?Q)) (and ?Q (not ?N)))))
(let (($x430974 (or (not ?R) (and ?M ?S (not ?T)))))
(let (($x461968 (or (not ?R) ?S)))
(let (($x41045 (not ?U)))
(let (($x351767 (or $x41045 (and ?R ?V (<= ?W ?X) (>= ?W ?X)) (and ?M ?Y ?T (<= ?W ?A) (>= ?W ?A)))))
(let (($x512274 (or $x41045 (and ?V (not ?Y)) (and ?Y (not ?V)))))
(let (($x502933 (or (not ?Z) (and ?U ?A1 ?B1))))
(let (($x881099 (or (not ?Z) ?A1)))
(let (($x402109 (or (not ?C1) (and ?Z ?D1 ?E1) (and ?U ?F1 (not ?B1)))))
(let (($x362407 (or (not ?C1) (and ?D1 (not ?F1)) (and ?F1 (not ?D1)))))
(let (($x501976 (or (not ?G1) (and ?C1 ?H1 (not ?I1)))))
(let (($x866535 (or (not ?G1) ?H1)))
(let (($x841227 (or (not ?J1) (and ?G1 ?K1 (<= ?L1 ?M1) (>= ?L1 ?M1)) (and ?C1 ?N1 ?I1 (<= ?L1 ?O) (>= ?L1 ?O)))))
(let (($x139968 (or (not ?J1) (and ?K1 (not ?N1)) (and ?N1 (not ?K1)))))
(let (($x586582 (or (not ?O1) (and ?J1 ?P1 (not ?Q1)))))
(let (($x336652 (or (not ?O1) ?P1)))
(let (($x513751 (or (not ?R1) (and ?O1 ?S1 ?I1))))
(let (($x287201 (or (not ?R1) ?S1)))
(let (($x408929 (or (not ?T1) (and ?O1 ?U1 (not ?I1)))))
(let (($x222179 (or (not ?T1) ?U1)))
(let (($x688809 (or (not ?V1) (and ?R1 ?W1 ?X1))))
(let (($x261815 (or (not ?V1) ?W1)))
(let (($x35725 (or (not ?Y1) (and ?T1 ?Z1 ?A2))))
(let (($x486419 (or (not ?Y1) ?Z1)))
(let (($x625554 (>= ?G2 0.0)))
(let (($x638816 (<= ?G2 0.0)))
(let (($x863076 (and ?Z ?M2 (not ?E1) (<= ?D2 0.0) (>= ?D2 0.0) (<= ?E2 0.0) (>= ?E2 0.0) (<= ?F2 ?O) (>= ?F2 ?O) $x638816 $x625554)))
(let (($x301107 (>= ?G2 ?D)))
(let (($x444315 (<= ?G2 ?D)))
(let (($x450508 (>= ?F2 ?L1)))
(let (($x421349 (<= ?F2 ?L1)))
(let (($x850920 (>= ?E2 ?C)))
(let (($x565188 (<= ?E2 ?C)))
(let (($x853247 (>= ?D2 ?D)))
(let (($x242965 (<= ?D2 ?D)))
(let (($x475255 (and ?V1 ?C2 $x242965 $x853247 $x565188 $x850920 $x421349 $x450508 (<= ?G2 ?H2) (>= ?G2 ?H2))))
(let (($x278947 (not ?B2)))
(let (($x289627 (or $x278947 $x475255 (and ?R1 ?I2 (not ?X1) $x242965 $x853247 $x565188 $x850920 $x421349 $x450508 $x444315 $x301107) (and ?Y1 ?J2 $x242965 $x853247 $x565188 $x850920 $x421349 $x450508 $x444315 $x301107) (and ?T1 ?K2 (not ?A2) $x242965 $x853247 $x565188 $x850920 $x421349 $x450508 $x638816 $x625554) (and ?J1 ?L2 ?Q1 $x242965 $x853247 $x565188 $x850920 $x421349 $x450508 $x444315 $x301107) $x863076)))
(let (($x111691 (or $x278947 (and ?C2 (not ?I2) (not ?J2) (not ?K2) (not ?L2) (not ?M2)) (and ?I2 (not ?C2) (not ?J2) (not ?K2) (not ?L2) (not ?M2)) (and ?J2 (not ?C2) (not ?I2) (not ?K2) (not ?L2) (not ?M2)) (and ?K2 (not ?C2) (not ?I2) (not ?J2) (not ?L2) (not ?M2)) (and ?L2 (not ?C2) (not ?I2) (not ?J2) (not ?K2) (not ?M2)) (and ?M2 (not ?C2) (not ?I2) (not ?J2) (not ?K2) (not ?L2)))))
(let (($x350302 (= ?B2 true)))
(let (($x304224 (= ?L (= ?O2 0.0))))
(let (($x586757 (= ?Q2 (ite ?P2 1.0 0.0))))
(let (($x159692 (= ?T (= ?R2 0.0))))
(let (($x287334 (= ?X (ite ?S2 1.0 0.0))))
(let (($x398310 (= ?B1 (= ?T2 0.0))))
(let (($x303830 (= ?E1 (= ?U2 0.0))))
(let (($x647204 (= ?V2 (not (<= ?O 0.0)))))
(let (($x468053 (= ?W2 (+ (~ 1.0) ?O))))
(let (($x919934 (= ?M1 (ite ?V2 ?W2 ?O))))
(let (($x143756 (= ?X1 (not (<= ?L1 1.0)))))
(let (($x262112 (= ?X2 (= ?W 0.0))))
(let (($x183337 (= ?Y2 (= ?L1 0.0))))
(let (($x200950 (= ?A2 (and ?X2 ?Y2))))
(let (($x507711 (= ?Z2 (= ?W 0.0))))
(let (($x565489 (= ?A3 (= ?F2 2.0))))
(let (($x313844 (= ?B3 (= ?G2 0.0))))
(let (($x329364 (= ?C3 (or ?B3 ?A3))))
(let (($x66561 (= ?D3 (not ?C3))))
(let (($x511865 (= ?E3 (= ?D2 0.0))))
(let (($x796804 (and (|cp-rel-bb1.i.i| ?A ?B ?C ?D) $x511865 $x66561 $x329364 $x313844 $x565489 (= ?H2 (ite ?Z2 1.0 ?D)) $x507711 $x200950 $x183337 $x262112 $x143756 (= ?Q1 (= ?C 0.0)) $x919934 $x468053 $x647204 (= ?I1 (= ?D 0.0)) $x303830 $x398310 $x287334 (= ?S2 (= ?A 0.0)) $x159692 (= ?P (+ ?Q2 ?B)) $x586757 (= ?P2 (not (<= 2.0 ?B))) $x304224 (>= ?H ?G2) (<= ?H ?G2) (>= ?G ?E2) (<= ?G ?E2) (>= ?F ?F2) (<= ?F ?F2) (>= ?E ?W) (<= ?E ?W) (not (= ?N2 true)) $x350302 $x111691 $x289627 $x486419 $x35725 $x261815 $x688809 $x222179 $x408929 $x287201 $x513751 $x336652 $x586582 $x139968 $x841227 $x866535 $x501976 $x362407 $x402109 $x881099 $x502933 $x512274 $x351767 $x461968 $x430974 $x13901 $x295307 $x602568 $x101848 $x313861)))
(=> $x796804 $x490880))))))))))))))))))))))))))))))))))))))))))))))))))))))))))))))))))))
)
(assert (forall ((?A Real) (?B Real) (?C Real) (?D Real) (?E Bool) (?F Bool) (?G Bool) (?H Bool) (?I Bool) (?J Bool) (?K Real) (?L Real) (?M Bool) (?N Bool) (?O Bool) (?P Bool) (?Q Bool) (?R Bool) (?S Real) (?T Real) (?U Bool) (?V Bool) (?W Bool) (?X Bool) (?Y Bool) (?Z Bool) (?A1 Bool) (?B1 Bool) (?C1 Bool) (?D1 Bool) (?E1 Bool) (?F1 Bool) (?G1 Bool) (?H1 Real) (?I1 Real) (?J1 Bool) (?K1 Bool) (?L1 Bool) (?M1 Bool) (?N1 Bool) (?O1 Bool) (?P1 Bool) (?Q1 Bool) (?R1 Bool) (?S1 Bool) (?T1 Bool) (?U1 Bool) (?V1 Bool) (?W1 Bool) (?X1 Bool) (?Y1 Bool) (?Z1 Real) (?A2 Real) (?B2 Real) (?C2 Real) (?D2 Real) (?E2 Bool) (?F2 Bool) (?G2 Bool) (?H2 Bool) (?I2 Bool) (?J2 Bool) (?K2 Real) (?L2 Bool) (?M2 Real) (?N2 Real) (?O2 Bool) (?P2 Real) (?Q2 Real) (?R2 Bool) (?S2 Real) (?T2 Bool) (?U2 Bool) (?V2 Bool) (?W2 Bool) (?X2 Bool) (?Y2 Bool) (?Z2 Bool) (?A3 Bool) )(let (($x313861 (= ?J2 (and ?A3 ?Z2))))
(let (($x101848 (or (not ?E) (and ?F ?G (not ?H)))))
(let (($x602568 (or (not ?E) ?G)))
(let (($x352946 (not ?I)))
(let (($x646406 (or $x352946 (and ?E ?J (<= ?K ?L) (>= ?K ?L)) (and ?F ?M ?H (<= ?K ?B) (>= ?K ?B)))))
(let (($x13901 (or $x352946 (and ?J (not ?M)) (and ?M (not ?J)))))
(let (($x430974 (or (not ?N) (and ?I ?O (not ?P)))))
(let (($x461968 (or (not ?N) ?O)))
(let (($x41045 (not ?Q)))
(let (($x298787 (or $x41045 (and ?N ?R (<= ?S ?T) (>= ?S ?T)) (and ?I ?U ?P (<= ?S ?A) (>= ?S ?A)))))
(let (($x512274 (or $x41045 (and ?R (not ?U)) (and ?U (not ?R)))))
(let (($x502933 (or (not ?V) (and ?Q ?W ?X))))
(let (($x881099 (or (not ?V) ?W)))
(let (($x402109 (or (not ?Y) (and ?V ?Z ?A1) (and ?Q ?B1 (not ?X)))))
(let (($x362407 (or (not ?Y) (and ?Z (not ?B1)) (and ?B1 (not ?Z)))))
(let (($x501976 (or (not ?C1) (and ?Y ?D1 (not ?E1)))))
(let (($x866535 (or (not ?C1) ?D1)))
(let (($x841227 (or (not ?F1) (and ?C1 ?G1 (<= ?H1 ?I1) (>= ?H1 ?I1)) (and ?Y ?J1 ?E1 (<= ?H1 ?K) (>= ?H1 ?K)))))
(let (($x139968 (or (not ?F1) (and ?G1 (not ?J1)) (and ?J1 (not ?G1)))))
(let (($x586582 (or (not ?K1) (and ?F1 ?L1 (not ?M1)))))
(let (($x336652 (or (not ?K1) ?L1)))
(let (($x513751 (or (not ?N1) (and ?K1 ?O1 ?E1))))
(let (($x287201 (or (not ?N1) ?O1)))
(let (($x408929 (or (not ?P1) (and ?K1 ?Q1 (not ?E1)))))
(let (($x222179 (or (not ?P1) ?Q1)))
(let (($x688809 (or (not ?R1) (and ?N1 ?S1 ?T1))))
(let (($x261815 (or (not ?R1) ?S1)))
(let (($x35725 (or (not ?U1) (and ?P1 ?V1 ?W1))))
(let (($x486419 (or (not ?U1) ?V1)))
(let (($x625554 (>= ?C2 0.0)))
(let (($x638816 (<= ?C2 0.0)))
(let (($x863076 (and ?V ?I2 (not ?A1) (<= ?Z1 0.0) (>= ?Z1 0.0) (<= ?A2 0.0) (>= ?A2 0.0) (<= ?B2 ?K) (>= ?B2 ?K) $x638816 $x625554)))
(let (($x351474 (>= ?C2 ?D)))
(let (($x447505 (<= ?C2 ?D)))
(let (($x450508 (>= ?B2 ?H1)))
(let (($x421349 (<= ?B2 ?H1)))
(let (($x935778 (>= ?A2 ?C)))
(let (($x896094 (<= ?A2 ?C)))
(let (($x298685 (>= ?Z1 ?D)))
(let (($x859467 (<= ?Z1 ?D)))
(let (($x168081 (and ?R1 ?Y1 $x859467 $x298685 $x896094 $x935778 $x421349 $x450508 (<= ?C2 ?D2) (>= ?C2 ?D2))))
(let (($x278947 (not ?X1)))
(let (($x540248 (or $x278947 $x168081 (and ?N1 ?E2 (not ?T1) $x859467 $x298685 $x896094 $x935778 $x421349 $x450508 $x447505 $x351474) (and ?U1 ?F2 $x859467 $x298685 $x896094 $x935778 $x421349 $x450508 $x447505 $x351474) (and ?P1 ?G2 (not ?W1) $x859467 $x298685 $x896094 $x935778 $x421349 $x450508 $x638816 $x625554) (and ?F1 ?H2 ?M1 $x859467 $x298685 $x896094 $x935778 $x421349 $x450508 $x447505 $x351474) $x863076)))
(let (($x111691 (or $x278947 (and ?Y1 (not ?E2) (not ?F2) (not ?G2) (not ?H2) (not ?I2)) (and ?E2 (not ?Y1) (not ?F2) (not ?G2) (not ?H2) (not ?I2)) (and ?F2 (not ?Y1) (not ?E2) (not ?G2) (not ?H2) (not ?I2)) (and ?G2 (not ?Y1) (not ?E2) (not ?F2) (not ?H2) (not ?I2)) (and ?H2 (not ?Y1) (not ?E2) (not ?F2) (not ?G2) (not ?I2)) (and ?I2 (not ?Y1) (not ?E2) (not ?F2) (not ?G2) (not ?H2)))))
(let (($x350302 (= ?X1 true)))
(let (($x632835 (= ?J2 true)))
(let (($x304224 (= ?H (= ?K2 0.0))))
(let (($x586757 (= ?M2 (ite ?L2 1.0 0.0))))
(let (($x159692 (= ?P (= ?N2 0.0))))
(let (($x287334 (= ?T (ite ?O2 1.0 0.0))))
(let (($x398310 (= ?X (= ?P2 0.0))))
(let (($x303830 (= ?A1 (= ?Q2 0.0))))
(let (($x647204 (= ?R2 (not (<= ?K 0.0)))))
(let (($x468053 (= ?S2 (+ (~ 1.0) ?K))))
(let (($x919934 (= ?I1 (ite ?R2 ?S2 ?K))))
(let (($x143756 (= ?T1 (not (<= ?H1 1.0)))))
(let (($x262112 (= ?T2 (= ?S 0.0))))
(let (($x183337 (= ?U2 (= ?H1 0.0))))
(let (($x200950 (= ?W1 (and ?T2 ?U2))))
(let (($x507711 (= ?V2 (= ?S 0.0))))
(let (($x565489 (= ?W2 (= ?B2 2.0))))
(let (($x313844 (= ?X2 (= ?C2 0.0))))
(let (($x329364 (= ?Y2 (or ?X2 ?W2))))
(let (($x66561 (= ?Z2 (not ?Y2))))
(let (($x511865 (= ?A3 (= ?Z1 0.0))))
(let (($x490880 (|cp-rel-bb1.i.i| ?A ?B ?C ?D)))
(let (($x109605 (and $x490880 $x511865 $x66561 $x329364 $x313844 $x565489 (= ?D2 (ite ?V2 1.0 ?D)) $x507711 $x200950 $x183337 $x262112 $x143756 (= ?M1 (= ?C 0.0)) $x919934 $x468053 $x647204 (= ?E1 (= ?D 0.0)) $x303830 $x398310 $x287334 (= ?O2 (= ?A 0.0)) $x159692 (= ?L (+ ?M2 ?B)) $x586757 (= ?L2 (not (<= 2.0 ?B))) $x304224 $x632835 $x350302 $x111691 $x540248 $x486419 $x35725 $x261815 $x688809 $x222179 $x408929 $x287201 $x513751 $x336652 $x586582 $x139968 $x841227 $x866535 $x501976 $x362407 $x402109 $x881099 $x502933 $x512274 $x298787 $x461968 $x430974 $x13901 $x646406 $x602568 $x101848 $x313861)))
(=> $x109605 |cp-rel-bb2.i.i45.i.i|)))))))))))))))))))))))))))))))))))))))))))))))))))))))))))))))))))))
)
(assert (not cp-rel-bb2.i.i45.i.i))
(check-sat)
